p cnf 1178 1313
c ind 822 823 824 837 844 870 931 932 945 952 0
c ind 956 958 961 977 979 982 994 995 1014 1016 0
c ind 1020 1031 1032 1036 1037 1038 1042 1044 815 930 0
c ind 845 857 816 817 929 820 821 928 1131 1132 0
c ind 1130 1129 1163 1145 1154 1168 1149 1159 1176 1162 0
c ind 1144 1153 1167 1148 1158 1175 1127 1128 1161 1143 0
c ind 1152 1166 1147 1157 1174 1126 1160 1142 1151 1165 0
c ind 1146 1156 1173 1121 1137 1141 1171 1125 1124 1123 0
c ind 1122 1119 1120 1139 1169 1170 1140 1118 1113 1117 0
c ind 1116 1115 1114 1150 1164 1155 1172 818 819 1111 0
c ind 1112 1104 1105 1110 1138 1109 1108 1107 1106 1102 0
c ind 1103 1101 1134 1100 1098 1099 1135 1097 1092 1096 0
c ind 1095 1094 1093 1090 1091 1089 1084 1088 1087 1086 0
c ind 1085 1082 1083 1136 1075 1076 1081 1080 1079 1078 0
c ind 1077 1133 1073 1074 1072 1071 1069 1070 1068 1063 0
c ind 1067 1066 1065 1064 1061 1062 1060 1055 1059 1058 0
c ind 1057 1056 1053 1054 1046 1047 1052 1051 1050 1049 0
c ind 1048 1026 1027 1025 1024 1023 1045 1035 1033 1034 0
c ind 1022 1021 1043 1030 1019 1041 1039 1040 1028 1029 0
c ind 1018 1017 1010 1015 1013 1011 1012 1009 1002 1001 0
c ind 1008 1007 1006 1005 1004 1003 1000 999 998 997 0
c ind 996 814 989 988 986 987 985 984 990 991 0
c ind 983 981 992 980 993 978 976 974 975 973 0
c ind 972 971 970 969 968 967 965 966 964 963 0
c ind 962 960 959 935 957 955 953 954 827 951 0
c ind 946 950 947 948 942 949 944 940 941 943 0
c ind 939 934 938 936 937 933 927 920 912 926 0
c ind 925 924 923 906 905 904 922 903 921 902 0
c ind 901 900 919 918 917 916 915 914 913 911 0
c ind 910 909 908 907 899 892 884 898 897 896 0
c ind 895 878 877 876 894 875 893 874 873 872 0
c ind 891 890 889 888 887 886 885 883 882 881 0
c ind 880 879 871 869 867 868 858 859 866 865 0
c ind 864 863 862 860 861 854 853 855 856 852 0
c ind 851 850 849 847 848 846 843 842 838 839 0
c ind 840 841 834 836 833 832 835 826 831 825 0
c ind 830 828 829 1 0
c ret 611 612 613 614 615 616 617 618 619 620 0
c ret 621 622 623 624 625 626 627 628 629 630 0
c ret 631 632 633 634 635 636 637 638 639 640 0
c ret 641 642 643 644 645 646 647 648 649 650 0
c ret 651 652 653 654 655 656 657 658 659 660 0
c ret 661 662 663 664 665 666 667 668 669 670 0
c ret 671 672 673 674 675 676 677 678 679 680 0
c ret 681 682 683 684 685 686 687 688 689 690 0
c ret 691 692 693 694 695 696 697 698 699 700 0
c ret 701 702 703 704 705 706 707 708 709 710 0
c ret 711 712 713 714 715 716 717 718 719 720 0
c ret 721 722 723 724 725 726 727 728 729 730 0
c ret 731 732 733 734 735 736 737 738 739 740 0
c ret 741 742 743 744 745 746 747 748 749 750 0
c ret 751 752 753 754 755 756 757 758 759 760 0
c ret 761 762 763 764 765 766 767 768 769 770 0
c ret 771 772 773 774 775 776 306 777 778 312 0
c ret 313 314 315 316 317 318 319 320 321 322 0
c ret 323 324 325 326 327 328 329 330 331 332 0
c ret 779 780 333 334 781 782 335 336 337 338 0
c ret 339 340 341 342 343 344 345 346 347 348 0
c ret 307 349 350 783 351 784 352 353 785 354 0
c ret 786 355 356 357 358 359 360 361 362 363 0
c ret 364 365 787 366 367 368 369 370 788 371 0
c ret 372 789 373 374 790 375 791 376 377 378 0
c ret 379 380 381 382 383 384 385 386 387 388 0
c ret 792 389 308 390 391 793 392 794 393 394 0
c ret 395 795 396 796 397 398 399 400 401 402 0
c ret 403 404 405 406 407 408 409 410 411 412 0
c ret 413 414 797 415 798 416 417 418 799 800 0
c ret 419 420 421 422 423 424 425 426 427 428 0
c ret 801 429 309 430 431 432 433 434 435 802 0
c ret 436 803 437 438 804 805 439 440 441 442 0
c ret 443 444 445 446 806 447 807 448 449 450 0
c ret 808 451 452 453 454 455 456 457 458 459 0
c ret 460 461 462 463 464 809 465 466 467 468 0
c ret 810 469 811 470 812 471 813 472 473 474 0
c ret 475 476 477 478 479 480 481 482 483 484 0
c ret 485 486 487 488 489 490 491 492 493 494 0
c ret 495 496 497 498 499 500 310 501 502 503 0
c ret 504 505 506 507 508 509 510 511 512 513 0
c ret 514 515 516 517 518 519 520 521 522 523 0
c ret 524 525 526 527 528 529 530 531 532 533 0
c ret 534 535 536 537 538 539 311 540 541 542 0
c ret 543 544 545 546 547 548 549 550 551 552 0
c ret 553 554 555 556 557 558 559 560 561 562 0
c ret 563 564 565 566 567 568 569 570 571 572 0
c ret 573 574 575 576 577 578 579 580 581 582 0
c ret 583 584 585 586 587 588 589 590 591 592 0
c ret 593 594 595 596 597 598 599 600 601 602 0
c ret 603 604 605 606 607 608 609 610 0
2 134 299 -300 0
2 3 299 -300 0
-2 300 0
-2 -299 0
-2 -3 -134 0
3 -4 -60 -124 0
3 4 60 114 0
3 4 60 -124 0
3 -4 -60 114 0
-3 4 -60 0
-3 -4 60 0
-3 -114 124 0
4 -5 -15 0
4 -5 54 0
-4 5 0
-4 15 -54 0
5 -6 -8 0
-5 6 0
-5 8 0
6 -7 -625 -654 0
-6 625 0
-6 654 0
-6 7 0
7 -596 -683 -712 -741 0
-7 741 0
-7 596 0
-7 712 0
-7 683 0
8 9 -567 0
-8 567 0
-8 -9 0
9 -10 -11 0
9 -11 -14 0
-9 11 0
-9 10 14 0
10 538 0
10 -539 -545 0
10 539 -546 0
-10 -538 539 546 0
-10 -538 -539 545 0
-10 11 -12 0
11 -12 -13 0
-11 12 0
10 -11 13 0
12 538 0
12 -539 545 0
12 539 546 0
-12 -538 539 -546 0
-12 -538 -539 -545 0
-10 13 0
13 547 -554 0
13 -547 -553 0
10 -13 -547 553 0
10 -13 547 554 0
-10 14 0
14 -547 553 0
14 547 554 0
10 -14 -547 -553 0
10 -14 547 -554 0
15 -16 -53 -791 0
15 16 -17 -53 0
-15 53 0
-15 -16 791 0
-15 16 17 0
16 533 -535 0
-16 -533 0
-16 535 0
17 -18 -790 0
17 18 -19 0
-17 -18 790 0
-17 18 19 0
18 505 -507 0
-18 -505 0
-18 507 0
19 20 45 52 0
19 20 45 -48 0
-19 -20 0
-19 -45 0
-19 48 -52 0
20 -43 306 -481 0
20 21 306 481 0
-20 -306 0
-20 43 -481 0
-20 -21 481 0
21 -22 -787 0
-21 787 0
-21 22 0
22 23 -27 0
-22 -23 0
-22 27 0
23 -24 -338 0
23 -26 -338 0
23 -25 -338 0
-23 338 0
-23 24 25 26 0
24 -339 340 341 0
-24 339 0
-24 -341 0
-24 -340 0
25 344 347 348 0
-25 -344 0
-25 -348 0
-25 -347 0
26 -344 345 346 0
-26 344 0
-26 -346 0
-26 -345 0
27 28 -35 0
27 28 38 -371 0
-27 -28 0
-27 35 -38 0
-27 35 371 0
28 -29 32 0
28 32 392 0
-28 -32 0
-28 29 -392 0
29 -31 395 398 0
29 -30 -31 395 0
-29 -395 0
-29 31 0
-29 30 -398 0
30 396 -397 0
-30 -396 0
-30 397 0
31 393 394 0
-31 -393 0
-31 -394 0
30 -31 32 33 -34 0
31 -32 0
-32 -33 0
-30 -32 0
-32 34 0
33 404 405 0
33 404 412 413 0
-33 -404 0
-33 -405 -412 0
-33 -405 -413 0
34 -392 395 398 -399 0
-34 399 0
-34 -398 0
-34 392 0
-34 -395 0
35 36 -364 0
35 37 -364 -370 0
-35 364 0
-35 -36 370 0
-35 -36 -37 0
36 365 366 367 0
-36 -365 0
-36 -367 0
-36 -366 0
37 368 -369 0
-37 -368 0
-37 369 0
38 39 42 0
-38 -39 0
-38 -42 0
39 -40 -41 -384 0
39 -40 -41 -385 0
-39 41 0
-39 40 0
-39 384 385 0
-36 37 40 -364 -371 0
36 -40 0
-37 -40 0
-40 364 0
-40 371 0
41 370 376 -377 0
-41 377 0
-41 -376 0
-41 -370 0
-40 42 370 -376 0
40 -42 0
-42 376 0
-42 -370 0
43 -44 788 0
21 43 44 0
-43 -44 -788 0
-21 -43 44 0
44 447 -449 0
-44 -447 0
-44 449 0
45 -46 -47 -491 0
45 -46 -47 -492 0
-45 47 0
-45 46 0
-45 491 492 0
46 494 495 496 497 0
-46 -497 0
-46 -496 0
-46 -494 0
-46 -495 0
47 -488 -489 -490 493 0
-47 490 0
-47 -493 0
-47 488 0
-47 489 0
43 48 -49 0
-43 -48 0
-48 49 0
49 50 51 0
-49 -50 0
-49 -51 0
50 460 461 462 0
-50 -460 0
-50 -462 0
-50 -461 0
51 468 -470 0
-51 -468 0
-51 470 0
51 52 -306 0
52 -306 789 0
-52 306 0
-51 -52 -789 0
53 -502 509 0
-53 502 0
-53 -509 0
54 -55 -502 0
17 19 54 0
17 54 -502 0
19 54 -55 0
-19 -54 502 0
-17 -54 55 0
55 57 509 0
55 -56 57 0
55 57 502 0
-55 -57 0
-55 56 -502 -509 0
56 -510 511 0
-56 510 0
-56 -511 0
57 58 -59 0
-57 -58 0
-57 59 0
58 513 -514 -515 516 0
-58 -513 0
-58 -516 0
-58 515 0
-58 514 0
59 -502 -509 -510 511 0
-59 510 0
-59 -511 0
-59 502 0
-59 509 0
60 -61 -71 0
60 -61 108 0
-60 61 0
-60 71 -108 0
61 62 -65 0
-61 -62 0
-61 65 0
62 -63 -64 0
-62 63 0
-62 64 0
63 1075 0
63 -1076 1082 0
63 1076 1083 0
-63 -1075 1076 -1083 0
-63 -1075 -1076 -1082 0
64 1075 0
64 -1076 -1082 0
64 1076 -1083 0
-64 -1075 1076 1083 0
-64 -1075 -1076 1082 0
65 67 -1104 0
65 66 70 -1104 0
-65 1104 0
-65 -66 -67 0
-65 -67 -70 0
66 1046 0
66 -1047 -1053 0
66 1047 -1054 0
-66 -1046 1047 1054 0
-66 -1046 -1047 1053 0
67 -68 -69 0
-66 67 -69 0
-67 69 0
66 -67 68 0
-66 68 0
68 1055 -1062 0
68 -1055 -1061 0
66 -68 -1055 1061 0
66 -68 1055 1062 0
69 1046 0
69 -1047 1053 0
69 1047 1054 0
-69 -1046 1047 -1054 0
-69 -1046 -1047 -1053 0
-66 70 0
70 -1055 1061 0
70 1055 1062 0
66 -70 -1055 -1061 0
66 -70 1055 -1062 0
71 -72 -107 -1154 0
71 72 -73 -107 0
-71 107 0
-71 -72 1154 0
-71 72 73 0
72 1041 -1043 0
-72 -1041 0
-72 1043 0
73 -74 -1153 0
73 74 -75 0
-73 -74 1153 0
-73 74 75 0
74 1013 -1015 0
-74 -1013 0
-74 1015 0
75 76 99 106 0
75 76 99 -102 0
-75 -76 0
-75 -99 0
-75 102 -106 0
76 -97 814 -989 0
76 77 814 989 0
-76 -814 0
-76 97 -989 0
-76 -77 989 0
77 -78 -1150 0
-77 1150 0
-77 78 0
78 -79 93 0
-78 79 0
-78 -93 0
79 -86 87 0
79 80 87 -879 0
-79 -87 0
-79 -80 86 0
-79 86 879 0
80 81 0
80 84 -878 0
80 84 884 0
-80 -81 -84 0
-80 -81 878 -884 0
81 -82 83 -872 -879 0
-81 82 0
-81 -83 0
-81 872 0
-81 879 0
82 873 874 875 0
-82 -873 0
-82 -875 0
-82 -874 0
83 876 -877 0
-83 -876 0
-83 877 0
84 85 878 884 -885 0
-84 -878 0
-84 -85 0
-84 885 0
-84 -884 0
85 892 893 0
-85 -892 0
-85 -893 0
82 86 -872 0
83 86 -872 -878 0
-86 872 0
-82 -86 878 0
-82 -83 -86 0
87 89 92 0
87 89 -91 0
87 88 89 0
-87 -89 0
-87 -88 91 -92 0
88 901 902 903 0
-88 -901 0
-88 -903 0
-88 -902 0
88 89 -900 0
89 90 -900 -906 0
-89 900 0
-88 -89 906 0
-88 -89 -90 0
90 904 -905 0
-90 -904 0
-90 905 0
91 912 913 0
91 912 920 921 0
-91 -912 0
-91 -913 -920 0
-91 -913 -921 0
90 92 -900 906 -907 0
-92 907 0
-90 -92 0
-92 900 0
-92 -906 0
93 -94 -846 0
93 -96 -846 0
93 -95 -846 0
-93 846 0
-93 94 95 96 0
94 -847 848 849 0
-94 847 0
-94 -849 0
-94 -848 0
95 852 855 856 0
-95 -852 0
-95 -856 0
-95 -855 0
96 -852 853 854 0
-96 852 0
-96 -854 0
-96 -853 0
97 -98 1151 0
77 97 98 0
-97 -98 -1151 0
-77 -97 98 0
98 955 -957 0
-98 -955 0
-98 957 0
99 -100 -101 -999 0
99 -100 -101 -1000 0
-99 101 0
-99 100 0
-99 999 1000 0
100 1002 1003 1004 1005 0
-100 -1005 0
-100 -1004 0
-100 -1002 0
-100 -1003 0
101 -996 -997 -998 1001 0
-101 998 0
-101 -1001 0
-101 996 0
-101 997 0
97 102 -103 0
-97 -102 0
-102 103 0
103 104 105 0
-103 -104 0
-103 -105 0
104 968 969 970 0
-104 -968 0
-104 -970 0
-104 -969 0
105 976 -978 0
-105 -976 0
-105 978 0
105 106 -814 0
106 -814 1152 0
-106 814 0
-105 -106 -1152 0
107 -1010 1017 0
-107 1010 0
-107 -1017 0
108 -109 -1010 0
73 75 108 0
73 108 -1010 0
75 108 -109 0
-75 -108 1010 0
-73 -108 109 0
109 111 1017 0
109 -110 111 0
109 111 1010 0
-109 -111 0
-109 110 -1010 -1017 0
110 -1018 1019 0
-110 1018 0
-110 -1019 0
111 112 -113 0
-111 -112 0
-111 113 0
112 1021 -1022 -1023 1024 0
-112 -1021 0
-112 -1024 0
-112 1023 0
-112 1022 0
113 -1010 -1017 -1018 1019 0
-113 1018 0
-113 -1019 0
-113 1010 0
-113 1017 0
-5 114 -115 0
-5 114 123 0
5 -114 0
-114 115 -123 0
16 -53 115 -116 0
-16 -53 115 -813 0
53 -115 0
16 -115 116 0
-16 -115 813 0
-18 116 -812 0
18 116 -117 0
-18 -116 812 0
18 -116 117 0
45 117 118 122 0
45 117 118 -121 0
-45 -117 0
-117 -118 0
-117 121 -122 0
118 -120 306 -481 0
118 119 306 481 0
-118 -306 0
-118 120 -481 0
-118 -119 481 0
-22 119 -809 0
-119 809 0
22 -119 0
-44 120 810 0
44 119 120 0
-44 -120 -810 0
44 -119 -120 0
-49 120 121 0
49 -121 0
-120 -121 0
51 122 -306 0
122 -306 811 0
-122 306 0
-51 -122 -811 0
-55 117 123 0
116 123 -502 0
-55 123 -502 0
116 117 123 0
55 -116 -123 0
-117 -123 502 0
-61 124 -125 0
-61 124 133 0
61 -124 0
-124 125 -133 0
72 -107 125 -126 0
-72 -107 125 -1176 0
107 -125 0
72 -125 126 0
-72 -125 1176 0
-74 126 -1175 0
74 126 -127 0
-74 -126 1175 0
74 -126 127 0
99 127 128 132 0
99 127 128 -131 0
-99 -127 0
-127 -128 0
-127 131 -132 0
128 -130 814 -989 0
128 129 814 989 0
-128 -814 0
-128 130 -989 0
-128 -129 989 0
-78 129 -1172 0
-129 1172 0
78 -129 0
-98 130 1173 0
98 129 130 0
-98 -130 -1173 0
98 -129 -130 0
-103 130 131 0
103 -131 0
-130 -131 0
105 132 -814 0
132 -814 1174 0
-132 814 0
-105 -132 -1174 0
-109 127 133 0
126 133 -1010 0
-109 133 -1010 0
126 127 133 0
109 -126 -133 0
-127 -133 1010 0
134 135 144 -153 -278 0
134 -135 -144 -153 -278 0
-134 278 0
-134 -135 144 0
-134 153 0
-134 135 -144 0
-5 135 -136 0
-5 135 143 0
5 -135 0
-135 136 -143 0
16 -53 136 -137 0
-16 -53 136 -786 0
53 -136 0
16 -136 137 0
-16 -136 786 0
-18 137 -785 0
18 137 -138 0
-18 -137 785 0
18 -137 138 0
45 138 139 142 0
45 138 139 -141 0
-45 -138 0
-138 -139 0
-138 141 -142 0
139 -140 306 -481 0
22 139 306 481 0
-139 -306 0
-139 140 -481 0
-22 -139 481 0
-44 140 783 0
22 44 140 0
-44 -140 -783 0
-22 44 -140 0
-49 140 141 0
49 -141 0
-140 -141 0
51 142 -306 0
142 -306 784 0
-142 306 0
-51 -142 -784 0
-55 138 143 0
137 143 -502 0
-55 143 -502 0
137 138 143 0
55 -137 -143 0
-138 -143 502 0
-61 144 -145 0
-61 144 152 0
61 -144 0
-144 145 -152 0
72 -107 145 -146 0
-72 -107 145 -1149 0
107 -145 0
72 -145 146 0
-72 -145 1149 0
-74 146 -1148 0
74 146 -147 0
-74 -146 1148 0
74 -146 147 0
99 147 148 151 0
99 147 148 -150 0
-99 -147 0
-147 -148 0
-147 150 -151 0
148 -149 814 -989 0
78 148 814 989 0
-148 -814 0
-148 149 -989 0
-78 -148 989 0
-98 149 1146 0
78 98 149 0
-98 -149 -1146 0
-78 98 -149 0
-103 149 150 0
103 -150 0
-149 -150 0
105 151 -814 0
151 -814 1147 0
-151 814 0
-105 -151 -1147 0
-109 147 152 0
146 152 -1010 0
-109 152 -1010 0
146 147 152 0
109 -146 -152 0
-147 -152 1010 0
153 -154 -203 -258 -268 0
153 -154 -203 258 268 0
-153 203 0
-153 258 -268 0
-153 154 0
-153 -258 268 0
154 -155 -169 -194 0
154 155 169 185 0
154 155 169 -194 0
154 -155 -169 185 0
-154 155 -169 0
-154 -155 169 0
-154 -185 194 0
155 -156 -157 0
155 -156 -167 0
155 -156 -166 0
-155 156 0
-155 157 166 167 0
-65 156 -1075 0
-156 1075 0
65 -156 0
157 160 -161 0
-103 157 158 -161 0
-157 161 0
-157 -158 -160 0
103 -157 -160 0
-98 158 1156 0
98 158 159 0
-98 -158 -1156 0
98 -158 -159 0
-78 159 -1155 0
-159 1155 0
78 -159 0
105 160 -814 0
160 -814 1157 0
-160 814 0
-105 -160 -1157 0
161 -162 165 0
-161 162 0
-161 -165 0
99 162 163 0
-99 -162 0
-162 -163 0
-74 163 -1010 0
163 -164 -1010 0
-163 1010 0
74 -163 164 0
-72 111 164 1017 0
-110 111 164 -1017 0
-111 -164 0
110 -164 -1017 0
72 -164 1017 0
-158 165 814 -989 0
159 165 814 989 0
-165 -814 0
158 -165 -989 0
-159 -165 989 0
-72 -107 166 -1159 0
-166 1159 0
72 -166 0
107 -166 0
-74 167 -168 -1158 0
-167 1158 0
74 -167 0
-167 168 0
164 168 -1010 0
-168 1010 0
-164 -168 0
169 -170 -173 0
169 -170 -183 0
169 -170 -182 0
-169 170 0
-169 173 182 183 0
-6 9 170 172 0
-6 9 170 171 0
6 -170 0
-9 -170 0
-170 -171 -172 0
171 567 0
171 -568 -574 0
171 568 -575 0
-171 -567 568 575 0
-171 -567 -568 574 0
172 567 0
172 -568 574 0
172 568 575 0
-172 -567 568 -575 0
-172 -567 -568 -574 0
173 176 -177 0
-49 173 174 -177 0
-173 177 0
-173 -174 -176 0
49 -173 -176 0
-44 174 793 0
44 174 175 0
-44 -174 -793 0
44 -174 -175 0
-22 175 -792 0
-175 792 0
22 -175 0
51 176 -306 0
176 -306 794 0
-176 306 0
-51 -176 -794 0
177 -178 181 0
-177 178 0
-177 -181 0
45 178 179 0
-45 -178 0
-178 -179 0
-18 179 -502 0
179 -180 -502 0
-179 502 0
18 -179 180 0
-16 57 180 509 0
-56 57 180 -509 0
-57 -180 0
56 -180 -509 0
16 -180 509 0
-174 181 306 -481 0
175 181 306 481 0
-181 -306 0
174 -181 -481 0
-175 -181 481 0
-16 -53 182 -796 0
-182 796 0
16 -182 0
53 -182 0
-18 183 -184 -795 0
-183 795 0
18 -183 0
-183 184 0
180 184 -502 0
-184 502 0
-180 -184 0
-156 185 -186 0
-156 185 -193 0
-156 185 -192 0
156 -185 0
-185 186 192 193 0
186 189 -190 0
-103 186 187 -190 0
-186 190 0
-186 -187 -189 0
103 -186 -189 0
-98 187 1165 0
98 187 188 0
-98 -187 -1165 0
98 -187 -188 0
-78 188 -1164 0
-188 1164 0
78 -188 0
105 189 -814 0
189 -814 1166 0
-189 814 0
-105 -189 -1166 0
-162 190 191 0
162 -190 0
-190 -191 0
-187 191 814 -989 0
188 191 814 989 0
-191 -814 0
187 -191 -989 0
-188 -191 989 0
-72 -107 192 -1168 0
-192 1168 0
72 -192 0
107 -192 0
-74 -168 193 -1167 0
-193 1167 0
74 -193 0
168 -193 0
-170 194 -195 0
-170 194 -202 0
-170 194 -201 0
170 -194 0
-194 195 201 202 0
195 198 -199 0
-49 195 196 -199 0
-195 199 0
-195 -196 -198 0
49 -195 -198 0
-44 196 802 0
44 196 197 0
-44 -196 -802 0
44 -196 -197 0
-22 197 -801 0
-197 801 0
22 -197 0
51 198 -306 0
198 -306 803 0
-198 306 0
-51 -198 -803 0
-178 199 200 0
178 -199 0
-199 -200 0
-196 200 306 -481 0
197 200 306 481 0
-200 -306 0
196 -200 -481 0
-197 -200 481 0
-16 -53 201 -805 0
-201 805 0
16 -201 0
53 -201 0
-18 -184 202 -804 0
-202 804 0
18 -202 0
184 -202 0
-185 203 -204 -240 0
194 203 -204 -240 0
-203 240 0
-203 204 0
185 -194 -203 0
204 205 229 232 -234 0
204 205 -229 -232 -234 0
-204 234 0
-204 -229 232 0
-204 -205 0
-204 229 -232 0
205 206 -217 0
-205 -206 0
-205 217 0
206 -210 306 0
50 206 -207 -210 0
-206 210 0
-206 207 -306 0
-50 -206 -306 0
207 425 -808 0
207 -208 -425 0
-207 208 -425 0
-207 425 808 0
-27 208 -770 0
23 -27 208 209 0
27 -208 0
-208 -209 770 0
-23 -208 770 0
209 317 807 0
-209 -317 0
-209 -807 0
210 211 -214 0
-210 -211 0
-210 214 0
207 211 212 0
207 208 211 0
208 211 -212 306 0
-207 -211 212 0
-208 -211 -212 0
-207 -211 -306 0
212 -213 481 482 0
-212 213 0
-212 -482 0
-212 -481 0
213 483 484 485 0
-213 -483 0
-213 -485 0
-213 -484 0
-6 214 215 -216 -567 0
-214 216 0
-214 567 0
6 -214 0
-214 -215 0
-11 215 538 0
-11 -14 215 0
11 -215 0
14 -215 -538 0
45 59 216 0
45 58 216 0
-45 -216 0
-58 -59 -216 0
217 -221 814 0
104 217 -218 -221 0
-217 221 0
-217 218 -814 0
-104 -217 -814 0
218 933 -1171 0
218 -219 -933 0
-218 219 -933 0
-218 933 1171 0
-79 219 -1133 0
-79 93 219 220 0
79 -219 0
-219 -220 1133 0
-93 -219 1133 0
220 825 1170 0
-220 -825 0
-220 -1170 0
221 222 -225 0
-221 -222 0
-221 225 0
218 222 223 0
218 219 222 0
219 222 -223 814 0
-218 -222 223 0
-219 -222 -223 0
-218 -222 -814 0
223 -224 989 990 993 0
-223 224 0
-223 -993 0
-223 -989 0
-223 -990 0
224 991 992 0
-224 -991 0
-224 -992 0
225 -226 -227 0
-225 226 0
-225 227 0
62 226 -1104 0
-226 1104 0
-62 -226 0
67 227 -228 0
70 227 -228 -1046 0
-227 228 0
-67 -70 -227 0
-67 -227 1046 0
99 113 228 0
99 112 228 0
-99 -228 0
-112 -113 -228 0
-27 -214 229 230 -231 0
-229 231 0
27 -229 0
214 -229 0
-229 -230 0
-50 230 -306 0
-230 306 0
50 -230 0
231 -770 772 0
-231 770 0
-231 -772 0
-79 -226 -227 232 -233 0
-232 233 0
79 -232 0
227 -232 0
226 -232 0
233 814 -1133 1135 0
104 233 -1133 1135 0
-233 1133 0
-233 -1135 0
-104 -233 -814 0
69 234 -235 0
68 234 -235 0
70 234 -235 0
-234 235 0
-68 -69 -70 -234 0
80 87 235 -236 0
-86 87 235 -236 0
-235 236 0
-87 -235 0
-80 86 -235 0
93 -228 236 -237 -1075 0
-236 237 0
-236 1075 0
228 -236 0
-93 -236 0
237 238 -239 -816 0
237 238 -239 -817 0
-237 239 0
-237 -238 0
-237 816 817 0
-104 238 -814 0
-238 814 0
104 -238 0
239 -818 -1104 0
239 819 -1104 0
-239 1104 0
-239 818 -819 0
206 240 -241 -249 0
-217 240 241 249 0
206 240 241 249 0
-217 240 -241 -249 0
-240 241 -249 0
-240 -241 249 0
-206 217 -240 0
241 -246 814 0
104 241 242 -246 0
-241 246 0
-241 -242 -814 0
-104 -241 -814 0
242 243 -933 0
-79 242 -245 933 0
-242 -243 -933 0
79 -242 933 0
-242 245 933 0
-79 243 -244 0
79 -243 0
-243 244 0
244 -1133 -1135 0
93 244 1133 0
244 -1133 -1139 0
-93 -244 1133 0
-244 -1133 1135 1139 0
245 -1133 1135 1141 0
-245 1133 0
-245 -1141 0
-245 -1135 0
-223 -225 246 247 0
-225 242 246 247 0
225 -246 0
-246 -247 0
223 -242 -246 0
243 247 -248 0
-247 248 0
-243 -247 0
-223 248 814 0
-248 -814 0
223 -248 0
249 -254 306 0
50 249 250 -254 0
-249 254 0
-249 -250 -306 0
-50 -249 -306 0
250 251 -425 0
-27 250 -253 425 0
-250 -251 -425 0
27 -250 425 0
-250 253 425 0
-27 251 -252 0
27 -251 0
-251 252 0
252 -770 -772 0
23 252 770 0
252 -770 -776 0
-23 -252 770 0
-252 -770 772 776 0
253 -770 772 778 0
-253 770 0
-253 -778 0
-253 -772 0
-214 254 -255 256 0
-214 250 254 256 0
214 -254 0
-254 -256 0
-250 -254 255 0
255 481 482 0
-255 -481 0
-255 -482 0
251 256 -257 0
213 -250 256 0
213 256 -257 0
-250 251 256 0
250 -256 257 0
-213 -251 -256 0
-212 257 306 0
-257 -306 0
212 -257 0
-61 163 258 259 0
-61 258 259 267 0
61 -258 0
-258 -259 0
-163 -258 -267 0
259 261 1010 0
74 259 260 261 0
-259 -261 0
-259 -260 -1010 0
-74 -259 -1010 0
-72 260 1017 -1163 0
72 -260 0
-260 1163 0
-260 -1017 0
99 261 262 266 0
99 261 262 -265 0
-99 -261 0
-261 -262 0
-261 265 -266 0
262 -264 814 -989 0
262 263 814 989 0
-262 -814 0
-262 264 -989 0
-262 -263 989 0
-78 263 -818 0
-263 818 0
78 -263 0
-98 264 1160 0
98 263 264 0
-98 -264 -1160 0
98 -263 -264 0
-103 264 265 0
103 -265 0
-264 -265 0
105 266 -814 0
266 -814 1161 0
-266 814 0
-105 -266 -1161 0
-164 260 267 0
260 267 1162 0
-260 -267 0
164 -267 -1162 0
-6 -8 268 269 277 0
8 -268 0
-268 -277 0
6 -268 0
-268 -269 0
269 271 502 0
18 269 270 271 0
-269 -271 0
-269 -270 -502 0
-18 -269 -502 0
-16 270 509 -800 0
16 -270 0
-270 800 0
-270 -509 0
45 271 272 276 0
45 271 272 -275 0
-45 -271 0
-271 -272 0
-271 275 -276 0
272 -274 306 -481 0
272 273 306 481 0
-272 -306 0
-272 274 -481 0
-272 -273 481 0
-22 273 -310 0
-273 310 0
22 -273 0
-44 274 797 0
44 273 274 0
-44 -274 -797 0
44 -273 -274 0
-49 274 275 0
49 -275 0
-274 -275 0
51 276 -306 0
276 -306 798 0
-276 306 0
-51 -276 -798 0
-179 -180 270 277 0
-179 270 277 799 0
179 -277 0
-270 -277 0
180 -277 -799 0
124 278 279 289 0
-114 278 -279 -289 0
-114 278 279 289 0
124 278 -279 -289 0
-278 279 -289 0
-278 -279 289 0
114 -124 -278 0
-5 279 -280 0
-5 279 288 0
5 -279 0
-279 280 -288 0
16 -53 280 -281 0
-16 -53 280 -782 0
53 -280 0
16 -280 281 0
-16 -280 782 0
-18 281 -781 0
18 281 -282 0
-18 -281 781 0
18 -281 282 0
45 282 283 287 0
45 282 283 -286 0
-45 -282 0
-282 -283 0
-282 286 -287 0
283 284 -306 780 0
51 283 284 -306 0
-283 306 0
-283 -284 0
-51 -283 -780 0
-49 284 285 0
49 -284 0
-284 -285 0
22 44 285 0
-44 285 779 0
44 285 311 0
-44 -285 -779 0
-22 44 -285 -311 0
-22 44 286 -311 0
-22 286 -311 481 0
22 -286 0
-286 311 0
-44 -286 -481 0
287 306 779 0
287 306 481 0
44 287 306 0
-287 -306 0
-44 -287 -481 -779 0
-55 282 288 0
281 288 -502 0
-55 288 -502 0
281 282 288 0
55 -281 -288 0
-282 -288 502 0
-61 289 -290 0
-61 289 298 0
61 -289 0
-289 290 -298 0
72 -107 290 -291 0
-72 -107 290 -1145 0
107 -290 0
72 -290 291 0
-72 -290 1145 0
-74 291 -1144 0
74 291 -292 0
-74 -291 1144 0
74 -291 292 0
99 292 293 297 0
99 292 293 -296 0
-99 -292 0
-292 -293 0
-292 296 -297 0
293 294 -814 1143 0
105 293 294 -814 0
-293 814 0
-293 -294 0
-105 -293 -1143 0
-103 294 295 0
103 -294 0
-294 -295 0
78 98 295 0
-98 295 1142 0
98 295 819 0
-98 -295 -1142 0
-78 98 -295 -819 0
-78 98 296 -819 0
-78 296 -819 989 0
78 -296 0
-296 819 0
-98 -296 -989 0
297 814 1142 0
297 814 989 0
98 297 814 0
-297 -814 0
-98 -297 -989 -1142 0
-109 292 298 0
291 298 -1010 0
-109 298 -1010 0
291 292 298 0
109 -291 -298 0
-292 -298 1010 0
-12 -13 -14 299 0
12 -299 0
13 -299 0
14 -299 0
-35 300 -301 0
-39 300 -301 0
-42 300 -301 0
-300 301 0
35 39 42 -300 0
23 28 -216 301 -302 0
-23 -301 0
-301 302 0
216 -301 0
-28 -301 0
230 302 -303 -304 -305 0
-230 -302 0
-302 305 0
-302 304 0
-302 303 0
303 -683 -712 -741 0
-303 683 0
-303 712 0
-303 741 0
304 -567 -596 -625 -654 0
-304 654 0
-304 567 0
-304 625 0
-304 596 0
305 -309 -310 0
305 -308 311 0
305 -308 -310 0
305 -309 311 0
-305 310 -311 0
-305 308 309 0
1 2 0
-1 -2 0
1177 0

